RAW/XH/fspd/X-n101-k25.vrp_seed-4.out
19410	19.948	23.339
