RAW/XH/fspd/X-n101-k25.vrp_seed-4.sol
Route #1: 23 61 100 21 8 80
Route #2: 13 74 69 9 92 68
Route #3: 75 30 85 11 79 50
Route #4: 91 71 62 99 98 89 47 48 26
Route #5: 87 37 6 49 36 29 43 45 2 7
Route #6: 14 63 10 25 39 18
Route #7: 17 59 88 77 42 78 65 4
Route #8: 12 58
Route #9: 81 51 83 52 38 56
Route #10: 19 97 27 94 96 40 44
Route #11: 53 73 31 46 24 32
Route #12: 93 33 95 20 41 22 86
Route #13: 34 64 3 67 60 57 72 82 28
Route #14: 35 15 1 70 54 84
Route #15: 5 66 76 55 16 90
Cost 19410.000000